array [1..2] of int: X_INTRODUCED_2_ = [1,-1];
var 0..5: q_0:: output_var;
var 0..5: q_1:: output_var;
var 0..5: q_2:: output_var;
var 0..5: q_3:: output_var;
var 0..5: q_4:: output_var;
constraint int_lin_ne(X_INTRODUCED_2_,[q_2,q_0],1);
solve  satisfy;
